2023/05/23
Julia is now 1.9.0
previous version was 1.7.2
2023/11/29
gurobi is now 11.0.0
previous version was 10.0.2
solving instance uflp nldep holmberg 17 sinabc3
presolving:
(round 1, fast)       20 del vars, 1000 del conss, 0 add conss, 20 chg bounds, 0 chg sides, 0 chg coeffs, 0 upgd conss, 0 impls, 0 clqs
   (0.0s) symmetry computation started: requiring (bin +, int +, cont +), (fixed: bin -, int -, cont -)
   (0.0s) no symmetry present
presolving (2 rounds: 2 fast, 1 medium, 1 exhaustive):
 20 deleted vars, 1000 deleted constraints, 0 added constraints, 20 tightened bounds, 0 added holes, 0 changed sides, 0 changed coefficients
 0 implications, 0 cliques
presolved problem has 1040 variables (0 bin, 0 int, 0 impl, 1040 cont) and 90 constraints
     70 constraints of type <linear>
     20 constraints of type <nonlinear>
Presolving Time: 0.01

 time | node  | left  |LP iter|LP it/n|mem/heur|mdpt |vars |cons |rows |cuts |sepa|confs|strbr|  dualbound   | primalbound  |  gap   | compl. 
  0.0s|     1 |     0 |   190 |     - |    10M |   0 |1100 |  90 | 250 |   0 |  0 |   0 |   0 | 3.186937e+03 |      --      |    Inf | unknown
L 0.1s|     1 |     0 |   190 |     - |undercov|   0 |1100 |  90 | 250 |   0 |  0 |   0 |   0 | 3.186937e+03 | 3.411568e+03 |   7.05%| unknown
L 0.2s|     1 |     0 |   190 |     - |undercov|   0 |1100 |  90 | 250 |   0 |  0 |   0 |   0 | 3.186937e+03 | 3.411565e+03 |   7.05%| unknown
L 0.4s|     1 |     0 |   190 |     - |  subnlp|   0 |1100 |  90 | 250 |   0 |  0 |   0 |   0 | 3.186937e+03 | 3.411565e+03 |   7.05%| unknown
  0.4s|     1 |     0 |   198 |     - |    10M |   0 |1100 |  90 | 258 |   8 |  1 |   0 |   0 | 3.188946e+03 | 3.411565e+03 |   6.98%| unknown
  0.4s|     1 |     0 |   198 |     - |    10M |   0 |1100 |  90 | 258 |   8 |  1 |   0 |   0 | 3.188946e+03 | 3.411565e+03 |   6.98%| unknown
  0.4s|     1 |     0 |   842 |     - |    11M |   0 |1100 |  90 | 258 |   8 |  3 |   0 |   0 | 3.232574e+03 | 3.411565e+03 |   5.54%| unknown
  0.4s|     1 |     0 |   877 |     - |    11M |   0 |1100 |  90 | 278 |  28 |  4 |   0 |   0 | 3.349066e+03 | 3.411565e+03 |   1.87%| unknown
  0.4s|     1 |     0 |   893 |     - |    11M |   0 |1100 |  90 | 294 |  44 |  5 |   0 |   0 | 3.357517e+03 | 3.411565e+03 |   1.61%| unknown
L 0.5s|     1 |     0 |   893 |     - |  subnlp|   0 |1100 |  90 | 294 |  44 |  7 |   0 |   0 | 3.357517e+03 | 3.411565e+03 |   1.61%| unknown
  0.5s|     1 |     0 |   893 |     - |    11M |   0 |1100 |  90 | 294 |  44 |  7 |   0 |   0 | 3.357517e+03 | 3.411565e+03 |   1.61%| unknown
  0.5s|     1 |     2 |   893 |     - |    11M |   0 |1100 |  90 | 294 |  44 |  9 |   0 |   0 | 3.357517e+03 | 3.411565e+03 |   1.61%| unknown
  1.2s|   100 |    69 |  1220 |   9.5 |    12M |   8 |1100 |  90 | 153 | 210 |  2 |   0 |   0 | 3.399753e+03 | 3.411565e+03 |   0.35%|  58.55%
  1.3s|   200 |    69 |  1409 |   5.7 |    12M |  18 |1100 |  90 | 157 | 308 |  2 |   0 |   0 | 3.404604e+03 | 3.411565e+03 |   0.20%|  75.16%
  1.4s|   300 |    51 |  1582 |   4.4 |    12M |  23 |1100 |  90 | 169 | 381 |  0 |   0 |   0 | 3.406969e+03 | 3.411565e+03 |   0.13%|  86.48%
 time | node  | left  |LP iter|LP it/n|mem/heur|mdpt |vars |cons |rows |cuts |sepa|confs|strbr|  dualbound   | primalbound  |  gap   | compl. 
  1.6s|   400 |    33 |  1725 |   3.6 |    12M |  31 |1100 |  90 | 179 | 459 |  0 |   0 |   0 | 3.409214e+03 | 3.411565e+03 |   0.07%|  93.58%
  1.7s|   500 |    27 |  1888 |   3.2 |    12M |  43 |1100 |  90 | 155 | 550 |  1 |   0 |   0 | 3.410001e+03 | 3.411565e+03 |   0.05%|  96.47%
  1.8s|   600 |    13 |  2025 |   2.9 |    12M |  57 |1100 |  90 | 246 | 619 |  0 |   0 |   0 | 3.411356e+03 | 3.411565e+03 |   0.01%|  99.88%

SCIP Status        : problem is solved [optimal solution found]
Solving Time (sec) : 1.85
Solving Nodes      : 669
Primal Bound       : +3.41156535357594e+03 (5 solutions)
Dual Bound         : +3.41156535357594e+03
Gap                : 0.00 %
reading holmberg data file ../../../../../instances/uflp/holmberg/p17
primal_bound = 3411.5653535759398, dual_bound = 3411.5653535759398, gap = 0.0, time = 4.34
